NAME          BLANK   
ROWS
 N  OBJROW
 L  R0000000
COLUMNS
    C0000000  OBJROW     -999.         R0000000  17.         
    C0000001  OBJROW     -424.         R0000000  73.         
    C0000002  OBJROW     -207.         R0000000  608.        
    C0000003  OBJROW     -304.         R0000000  271.        
    C0000004  OBJROW     -944.         R0000000  496.        
    C0000005  OBJROW     -840.         R0000000  823.        
    C0000006  OBJROW     -850.         R0000000  20.         
    C0000007  OBJROW     -474.         R0000000  838.        
    C0000008  OBJROW     -376.         R0000000  532.        
    C0000009  OBJROW     -259.         R0000000  503.        
RHS
    RHS       R0000000  16386.      
BOUNDS
 BV BOUND     C0000000  1.          
 BV BOUND     C0000001  1.          
 BV BOUND     C0000002  1.          
 BV BOUND     C0000003  1.          
 BV BOUND     C0000004  1.          
 BV BOUND     C0000005  1.          
 BV BOUND     C0000006  1.          
 BV BOUND     C0000007  1.          
 BV BOUND     C0000008  1.          
 BV BOUND     C0000009  1.          
ENDATA
